Maximize
  - 1.89325239552 edge_0_1_0_0 - 4.47962 edge_0_2_0_0
   - 1.497566269034 edge_0_3_0_0 - 3.4004423057704 edge_0_4_0_0
   - 2.17931482912 edge_0_6_0_0 - 3.4091977623352 edge_0_7_0_0
   - 1.1178768481044 edge_0_8_0_0 - 1.2219622582086 edge_0_9_0_0
   - 3.228130153954 edge_0_13_0_0 - 3.104747101039 edge_0_15_0_0
   - 3.0232797470497 edge_0_16_0_0 - 3.1578594315852 edge_0_17_0_0
   - 2.8799510337353 edge_0_19_0_0 + 0.4711606272578646 edge_1_8_0_0
   + 0.3295839156973958 edge_1_9_0_0 + 0.6923404649808268 edge_1_13_0_0
   + 0.2519670245963138 edge_1_15_0_0 + 0.1986785220969471 edge_1_16_0_0
   + 0.4353545365497222 edge_1_17_0_0 + 0.0333215190434024 edge_1_18_0_0
   + 0.3014898174883276 edge_1_19_0_0 + 0.8057725280345792 edge_1_21_0_0
   + 0.860312467288336 edge_2_3_0_0 + 0.4275279990286801 edge_2_4_0_0
   + 0.8871305477664103 edge_2_5_0_0 + 0.3759457437364366 edge_2_6_0_0
   - 0.10449564026 edge_2_7_0_0 - 0.0982137726539414 edge_2_8_0_0
   - 0.5840217129240001 edge_2_9_0_0 + 0.5830785275117401 edge_2_10_0_0
   - 0.7696152255100907 edge_2_11_0_0 - 0.8091048335694301 edge_2_12_0_0
   - 0.42600900727224 edge_2_13_0_0 + 1.01187 edge_2_21_0_0
   + 2.502683915332182 edge_3_2_0_0 + 3.126549269031532 edge_3_4_0_0
   + 3.257250369092556 edge_3_5_0_0 + 1.279280502927989 edge_3_6_0_0
   + 2.457722560223799 edge_3_7_0_0 + 0.8332644464673268 edge_3_8_0_0
   + 0.7521481323513526 edge_3_9_0_0 + 2.417404988447283 edge_3_10_0_0
   - 0.1619259277216019 edge_3_11_0_0 - 0.4373650290911596 edge_3_12_0_0
   + 1.593202853945801 edge_3_13_0_0 - 0.6071466969156907 edge_3_15_0_0
   - 1.093214104956828 edge_3_17_0_0 - 0.4227661105437468 edge_3_18_0_0
   - 1.617762367371467 edge_3_19_0_0 + 5.15671969879 edge_3_21_0_0
   - 0.3505990476524966 edge_4_2_0_0 + 0.6142204741788746 edge_4_3_0_0
   + 1.073134398698626 edge_4_5_0_0 + 0.9542608982194158 edge_4_6_0_0
   + 0.3449152687428178 edge_4_7_0_0 - 0.038760231088059 edge_4_8_0_0
   - 0.5350867542011259 edge_4_9_0_0 + 0.649518033434186 edge_4_10_0_0
   + 0.1696844550568755 edge_4_13_0_0 + 1.995416628689 edge_4_21_0_0
   - 0.4260991858677123 edge_5_4_0_0 - 0.1105560208802595 edge_5_6_0_0
   - 0.6487042505519123 edge_5_7_0_0 - 0.4230634156463773 edge_6_4_0_0
   + 0.1197334530880044 edge_6_5_0_0 - 0.0551688307424855 edge_6_6_0_0
   + 0.7446231020770303 edge_6_7_0_0 + 0.1862993790742137 edge_6_8_0_0
   + 0.3678915892852009 edge_6_9_0_0 + 0.1496827810060053 edge_6_10_0_0
   - 0.1581528177790086 edge_6_11_0_0 - 0.1129371001867323 edge_6_12_0_0
   + 0.2247251264403417 edge_6_13_0_0 - 1.495953217589195 edge_6_18_0_0
   - 0.5036531938646205 edge_6_19_0_0 + 8.7698141080903998e-04 edge_7_2_0_0
   - 0.3678165955113523 edge_7_3_0_0 + 0.5013364477837167 edge_7_4_0_0
   + 0.6446793191956943 edge_7_5_0_0 + 1.749367541033185 edge_7_6_0_0
   + 0.552493083853095 edge_7_8_0_0 + 3.53858514666031 edge_7_9_0_0
   + 2.030600773843589 edge_7_10_0_0 + 0.9168354656215021 edge_7_11_0_0
   + 0.786128365426945 edge_7_12_0_0 + 1.260890565907645 edge_7_13_0_0
   - 0.0890407571101943 edge_7_15_0_0 - 0.2646329114183874 edge_7_17_0_0
   - 0.0909738657769538 edge_7_18_0_0 + 0.2058918827257109 edge_7_19_0_0
   + 3.429006935862 edge_7_21_0_0 + 0.0902556494863325 edge_8_1_0_0
   + 0.0653666420224042 edge_8_2_0_0 - 0.1565510127183492 edge_8_3_0_0
   + 0.0445612616248246 edge_8_4_0_0 + 0.2401426424011264 edge_8_5_0_0
   + 0.5105423872539608 edge_8_6_0_0 + 0.4336495792932616 edge_8_7_0_0
   + 1.307604384185564 edge_8_9_0_0 + 0.5956157892204288 edge_8_10_0_0
   + 0.1571081470863886 edge_8_11_0_0 + 0.1531214176022462 edge_8_12_0_0
   + 0.1517739781446534 edge_8_13_0_0 + 0.0767576670739968 edge_8_15_0_0
   - 0.100722122744298 edge_8_16_0_0 - 0.00990884335288599 edge_8_17_0_0
   - 0.0122423788023737 edge_8_19_0_0 - 0.0466375567957569 edge_8_21_0_0
   + 0.0346736211494051 edge_9_1_0_0 + 0.3804311734048 edge_9_2_0_0
   - 0.0374483965456843 edge_9_3_0_0 - 0.1321160516428274 edge_9_4_0_0
   - 0.1184263017655342 edge_9_5_0_0 + 0.9275884447633838 edge_9_6_0_0
   + 1.217768529185277 edge_9_7_0_0 + 3.350795093422721 edge_9_8_0_0
   + 1.377584874673921 edge_9_9_0_0 + 0.7563525103055053 edge_9_10_0_0
   + 0.6194992688380629 edge_9_11_0_0 + 1.166145243202929 edge_9_12_0_0
   + 0.5352620189882185 edge_9_13_0_0 - 0.029811876403641 edge_9_15_0_0
   - 0.304976881260604 edge_9_16_0_0 - 0.2170446285764399 edge_9_17_0_0
   - 0.4941734063487133 edge_9_18_0_0 - 0.5520677996440073 edge_9_19_0_0
   + 0.39282460294896 edge_9_21_0_0 - 0.1949272201251575 edge_10_9_0_0
   + 0.4976236282340369 edge_10_11_0_0 - 0.7911499040145097 edge_11_3_0_0
   - 1.251039308453409 edge_11_5_0_0 - 0.1726113481708947 edge_11_7_0_0
   - 0.1071386919667417 edge_11_8_0_0 - 0.2478795294575199 edge_11_9_0_0
   + 0.5261446679796606 edge_11_10_0_0 + 0.2079660896095059 edge_11_12_0_0
   + 0.1311444394639971 edge_11_13_0_0 - 0.9166612351781357 edge_11_15_0_0
   - 0.4557343659061445 edge_11_17_0_0 - 1.049924521692149 edge_11_18_0_0
   - 0.8728268845856785 edge_11_19_0_0 - 1.8507314408792 edge_12_2_0_0
   - 1.069831624029084 edge_12_3_0_0 - 0.8107291900668532 edge_12_5_0_0
   - 0.0854818008245463 edge_12_6_0_0 - 0.470661091041072 edge_12_7_0_0
   + 0.1166358518508183 edge_12_9_0_0 + 0.7108681799133805 edge_12_10_0_0
   + 0.9863345820694179 edge_12_11_0_0 + 0.8900832598569244 edge_12_13_0_0
   - 0.237081675100888 edge_12_15_0_0 - 0.2550580721562533 edge_12_17_0_0
   - 0.5130729499475684 edge_12_18_0_0 - 0.5340370157973197 edge_12_19_0_0
   + 1.1708199548265 edge_12_21_0_0 + 0.557841766184526 edge_13_1_0_0
   + 1.040873066523886 edge_13_2_0_0 + 0.5641175354191327 edge_13_3_0_0
   + 1.043036082048417 edge_13_4_0_0 + 0.4151126172382862 edge_13_5_0_0
   + 0.6394109855982517 edge_13_6_0_0 + 0.6395194502246393 edge_13_7_0_0
   + 0.8408137500384247 edge_13_8_0_0 + 1.687955427645202 edge_13_9_0_0
   + 1.686063579853774 edge_13_10_0_0 + 1.76276821235544 edge_13_11_0_0
   + 3.140169366365098 edge_13_12_0_0 + 2.147267286357675 edge_13_15_0_0
   + 0.9193350886636712 edge_13_16_0_0 + 2.529741695071956 edge_13_17_0_0
   + 1.459016102069383 edge_13_18_0_0 + 3.245373461108971 edge_13_19_0_0
   + 3.1008845408443 edge_13_21_0_0 - 0.4565171941902099 edge_15_1_0_0
   - 1.039639539838965 edge_15_3_0_0 - 0.0714408383038865 edge_15_8_0_0
   + 0.0776101732664448 edge_15_9_0_0 + 0.0960458164312515 edge_15_10_0_0
   - 0.0441321063597825 edge_15_12_0_0 - 0.3638366661388316 edge_15_13_0_0
   + 1.315036781137442 edge_15_16_0_0 + 1.483995933840684 edge_15_17_0_0
   + 1.540384483227028 edge_15_18_0_0 + 1.618281714365806 edge_15_19_0_0
   + 0.5787243603263315 edge_15_21_0_0 - 0.5755627266031563 edge_16_1_0_0
   - 0.3034941807046679 edge_16_8_0_0 - 0.5993719280301099 edge_16_13_0_0
   + 0.6193353138554437 edge_16_15_0_0 + 0.6051442351622677 edge_16_17_0_0
   + 0.1101864064717193 edge_16_19_0_0 - 0.2564536873849231 edge_16_21_0_0
   - 0.1194189899133574 edge_17_1_0_0 - 0.4122632315348491 edge_17_2_0_0
   - 1.36705336456735 edge_17_3_0_0 - 0.1692929080381511 edge_17_5_0_0
   - 0.1998992830411214 edge_17_6_0_0 + 0.1161053059366264 edge_17_8_0_0
   + 0.1878208904901693 edge_17_9_0_0 - 0.3402669063093101 edge_17_11_0_0
   - 0.00250095113178304 edge_17_12_0_0 - 0.5392889025992025 edge_17_13_0_0
   + 2.983220195512201 edge_17_15_0_0 + 3.734617677282597 edge_17_16_0_0
   + 0.3125620479860813 edge_17_18_0_0 + 1.441394864499728 edge_17_19_0_0
   + 1.0863698044534 edge_17_21_0_0 - 0.7213430832841016 edge_18_1_0_0
   - 0.3492297192063866 edge_18_8_0_0 - 1.149600095073642 edge_18_13_0_0
   + 0.4088908035281232 edge_18_15_0_0 - 0.5364641425079045 edge_18_16_0_0
   - 0.7133024696354102 edge_18_17_0_0 + 1.321180026013075 edge_18_19_0_0
   - 0.2041086537362599 edge_18_21_0_0 - 0.4969899218396268 edge_19_1_0_0
   - 1.4586762657792 edge_19_2_0_0 - 0.2100593394626429 edge_19_8_0_0
   - 0.5155937585656601 edge_19_9_0_0 + 0.0546214331534732 edge_19_11_0_0
   - 0.4088330765578747 edge_19_12_0_0 - 0.829695824386209 edge_19_13_0_0
   + 3.097094142817097 edge_19_15_0_0 + 0.4777742170164708 edge_19_16_0_0
   + 1.565985709188122 edge_19_17_0_0 + 3.44217856366697 edge_19_18_0_0
   + 0.6433958462085085 edge_19_21_0_0 - 1.418839246205361 edge_21_19_0_0
Subject To
 one_parent_1: edge_0_1_0_0 + edge_8_1_0_0 + edge_9_1_0_0 + edge_13_1_0_0
   + edge_15_1_0_0 + edge_16_1_0_0 + edge_17_1_0_0 + edge_18_1_0_0
   + edge_19_1_0_0 = 1
 consume_one_flow_unit_1: flow_0_1_0_0 - flow_1_8_0_0 - flow_1_9_0_0
   - flow_1_13_0_0 - flow_1_15_0_0 - flow_1_16_0_0 - flow_1_17_0_0
   - flow_1_18_0_0 - flow_1_19_0_0 - flow_1_21_0_0 + flow_8_1_0_0
   + flow_9_1_0_0 + flow_13_1_0_0 + flow_15_1_0_0 + flow_16_1_0_0
   + flow_17_1_0_0 + flow_18_1_0_0 + flow_19_1_0_0 = 1
 one_parent_2: edge_0_2_0_0 + edge_3_2_0_0 + edge_4_2_0_0 + edge_7_2_0_0
   + edge_8_2_0_0 + edge_9_2_0_0 + edge_12_2_0_0 + edge_13_2_0_0
   + edge_17_2_0_0 + edge_19_2_0_0 = 1
 consume_one_flow_unit_2: flow_0_2_0_0 - flow_2_3_0_0 - flow_2_4_0_0
   - flow_2_5_0_0 - flow_2_6_0_0 - flow_2_7_0_0 - flow_2_8_0_0
   - flow_2_9_0_0 - flow_2_10_0_0 - flow_2_11_0_0 - flow_2_12_0_0
   - flow_2_13_0_0 - flow_2_21_0_0 + flow_3_2_0_0 + flow_4_2_0_0
   + flow_7_2_0_0 + flow_8_2_0_0 + flow_9_2_0_0 + flow_12_2_0_0
   + flow_13_2_0_0 + flow_17_2_0_0 + flow_19_2_0_0 = 1
 one_parent_3: edge_0_3_0_0 + edge_2_3_0_0 + edge_4_3_0_0 + edge_7_3_0_0
   + edge_8_3_0_0 + edge_9_3_0_0 + edge_11_3_0_0 + edge_12_3_0_0
   + edge_13_3_0_0 + edge_15_3_0_0 + edge_17_3_0_0 = 1
 consume_one_flow_unit_3: flow_0_3_0_0 + flow_2_3_0_0 - flow_3_2_0_0
   - flow_3_4_0_0 - flow_3_5_0_0 - flow_3_6_0_0 - flow_3_7_0_0
   - flow_3_8_0_0 - flow_3_9_0_0 - flow_3_10_0_0 - flow_3_11_0_0
   - flow_3_12_0_0 - flow_3_13_0_0 - flow_3_15_0_0 - flow_3_17_0_0
   - flow_3_18_0_0 - flow_3_19_0_0 - flow_3_21_0_0 + flow_4_3_0_0
   + flow_7_3_0_0 + flow_8_3_0_0 + flow_9_3_0_0 + flow_11_3_0_0
   + flow_12_3_0_0 + flow_13_3_0_0 + flow_15_3_0_0 + flow_17_3_0_0 = 1
 one_parent_4: edge_0_4_0_0 + edge_2_4_0_0 + edge_3_4_0_0 + edge_5_4_0_0
   + edge_6_4_0_0 + edge_7_4_0_0 + edge_8_4_0_0 + edge_9_4_0_0
   + edge_13_4_0_0 = 1
 consume_one_flow_unit_4: flow_0_4_0_0 + flow_2_4_0_0 + flow_3_4_0_0
   - flow_4_2_0_0 - flow_4_3_0_0 - flow_4_5_0_0 - flow_4_6_0_0
   - flow_4_7_0_0 - flow_4_8_0_0 - flow_4_9_0_0 - flow_4_10_0_0
   - flow_4_13_0_0 - flow_4_21_0_0 + flow_5_4_0_0 + flow_6_4_0_0
   + flow_7_4_0_0 + flow_8_4_0_0 + flow_9_4_0_0 + flow_13_4_0_0 = 1
 one_parent_5: edge_2_5_0_0 + edge_3_5_0_0 + edge_4_5_0_0 + edge_6_5_0_0
   + edge_7_5_0_0 + edge_8_5_0_0 + edge_9_5_0_0 + edge_11_5_0_0
   + edge_12_5_0_0 + edge_13_5_0_0 + edge_17_5_0_0 = 1
 consume_one_flow_unit_5: flow_2_5_0_0 + flow_3_5_0_0 + flow_4_5_0_0
   - flow_5_4_0_0 - flow_5_6_0_0 - flow_5_7_0_0 + flow_6_5_0_0
   + flow_7_5_0_0 + flow_8_5_0_0 + flow_9_5_0_0 + flow_11_5_0_0
   + flow_12_5_0_0 + flow_13_5_0_0 + flow_17_5_0_0 = 1
 one_parent_6: edge_0_6_0_0 + edge_2_6_0_0 + edge_3_6_0_0 + edge_4_6_0_0
   + edge_5_6_0_0 + edge_6_6_0_0 + edge_7_6_0_0 + edge_8_6_0_0
   + edge_9_6_0_0 + edge_12_6_0_0 + edge_13_6_0_0 + edge_17_6_0_0 = 1
 consume_one_flow_unit_6: flow_0_6_0_0 + flow_2_6_0_0 + flow_3_6_0_0
   + flow_4_6_0_0 + flow_5_6_0_0 - flow_6_4_0_0 - flow_6_5_0_0
   - flow_6_7_0_0 - flow_6_8_0_0 - flow_6_9_0_0 - flow_6_10_0_0
   - flow_6_11_0_0 - flow_6_12_0_0 - flow_6_13_0_0 - flow_6_18_0_0
   - flow_6_19_0_0 + flow_7_6_0_0 + flow_8_6_0_0 + flow_9_6_0_0
   + flow_12_6_0_0 + flow_13_6_0_0 + flow_17_6_0_0 = 1
 one_parent_7: edge_0_7_0_0 + edge_2_7_0_0 + edge_3_7_0_0 + edge_4_7_0_0
   + edge_5_7_0_0 + edge_6_7_0_0 + edge_8_7_0_0 + edge_9_7_0_0
   + edge_11_7_0_0 + edge_12_7_0_0 + edge_13_7_0_0 = 1
 consume_one_flow_unit_7: flow_0_7_0_0 + flow_2_7_0_0 + flow_3_7_0_0
   + flow_4_7_0_0 + flow_5_7_0_0 + flow_6_7_0_0 - flow_7_2_0_0
   - flow_7_3_0_0 - flow_7_4_0_0 - flow_7_5_0_0 - flow_7_6_0_0
   - flow_7_8_0_0 - flow_7_9_0_0 - flow_7_10_0_0 - flow_7_11_0_0
   - flow_7_12_0_0 - flow_7_13_0_0 - flow_7_15_0_0 - flow_7_17_0_0
   - flow_7_18_0_0 - flow_7_19_0_0 - flow_7_21_0_0 + flow_8_7_0_0
   + flow_9_7_0_0 + flow_11_7_0_0 + flow_12_7_0_0 + flow_13_7_0_0 = 1
 one_parent_8: edge_0_8_0_0 + edge_1_8_0_0 + edge_2_8_0_0 + edge_3_8_0_0
   + edge_4_8_0_0 + edge_6_8_0_0 + edge_7_8_0_0 + edge_9_8_0_0
   + edge_11_8_0_0 + edge_13_8_0_0 + edge_15_8_0_0 + edge_16_8_0_0
   + edge_17_8_0_0 + edge_18_8_0_0 + edge_19_8_0_0 = 1
 consume_one_flow_unit_8: flow_0_8_0_0 + flow_1_8_0_0 + flow_2_8_0_0
   + flow_3_8_0_0 + flow_4_8_0_0 + flow_6_8_0_0 + flow_7_8_0_0
   - flow_8_1_0_0 - flow_8_2_0_0 - flow_8_3_0_0 - flow_8_4_0_0
   - flow_8_5_0_0 - flow_8_6_0_0 - flow_8_7_0_0 - flow_8_9_0_0
   - flow_8_10_0_0 - flow_8_11_0_0 - flow_8_12_0_0 - flow_8_13_0_0
   - flow_8_15_0_0 - flow_8_16_0_0 - flow_8_17_0_0 - flow_8_19_0_0
   - flow_8_21_0_0 + flow_9_8_0_0 + flow_11_8_0_0 + flow_13_8_0_0
   + flow_15_8_0_0 + flow_16_8_0_0 + flow_17_8_0_0 + flow_18_8_0_0
   + flow_19_8_0_0 = 1
 one_parent_9: edge_0_9_0_0 + edge_1_9_0_0 + edge_2_9_0_0 + edge_3_9_0_0
   + edge_4_9_0_0 + edge_6_9_0_0 + edge_7_9_0_0 + edge_8_9_0_0
   + edge_9_9_0_0 + edge_10_9_0_0 + edge_11_9_0_0 + edge_12_9_0_0
   + edge_13_9_0_0 + edge_15_9_0_0 + edge_17_9_0_0 + edge_19_9_0_0 = 1
 consume_one_flow_unit_9: flow_0_9_0_0 + flow_1_9_0_0 + flow_2_9_0_0
   + flow_3_9_0_0 + flow_4_9_0_0 + flow_6_9_0_0 + flow_7_9_0_0
   + flow_8_9_0_0 - flow_9_1_0_0 - flow_9_2_0_0 - flow_9_3_0_0
   - flow_9_4_0_0 - flow_9_5_0_0 - flow_9_6_0_0 - flow_9_7_0_0
   - flow_9_8_0_0 - flow_9_10_0_0 - flow_9_11_0_0 - flow_9_12_0_0
   - flow_9_13_0_0 - flow_9_15_0_0 - flow_9_16_0_0 - flow_9_17_0_0
   - flow_9_18_0_0 - flow_9_19_0_0 - flow_9_21_0_0 + flow_10_9_0_0
   + flow_11_9_0_0 + flow_12_9_0_0 + flow_13_9_0_0 + flow_15_9_0_0
   + flow_17_9_0_0 + flow_19_9_0_0 = 1
 one_parent_10: edge_2_10_0_0 + edge_3_10_0_0 + edge_4_10_0_0
   + edge_6_10_0_0 + edge_7_10_0_0 + edge_8_10_0_0 + edge_9_10_0_0
   + edge_11_10_0_0 + edge_12_10_0_0 + edge_13_10_0_0 + edge_15_10_0_0 = 1
 consume_one_flow_unit_10: flow_2_10_0_0 + flow_3_10_0_0 + flow_4_10_0_0
   + flow_6_10_0_0 + flow_7_10_0_0 + flow_8_10_0_0 + flow_9_10_0_0
   - flow_10_9_0_0 - flow_10_11_0_0 + flow_11_10_0_0 + flow_12_10_0_0
   + flow_13_10_0_0 + flow_15_10_0_0 = 1
 one_parent_11: edge_2_11_0_0 + edge_3_11_0_0 + edge_6_11_0_0
   + edge_7_11_0_0 + edge_8_11_0_0 + edge_9_11_0_0 + edge_10_11_0_0
   + edge_12_11_0_0 + edge_13_11_0_0 + edge_17_11_0_0 + edge_19_11_0_0 = 1
 consume_one_flow_unit_11: flow_2_11_0_0 + flow_3_11_0_0 + flow_6_11_0_0
   + flow_7_11_0_0 + flow_8_11_0_0 + flow_9_11_0_0 + flow_10_11_0_0
   - flow_11_3_0_0 - flow_11_5_0_0 - flow_11_7_0_0 - flow_11_8_0_0
   - flow_11_9_0_0 - flow_11_10_0_0 - flow_11_12_0_0 - flow_11_13_0_0
   - flow_11_15_0_0 - flow_11_17_0_0 - flow_11_18_0_0 - flow_11_19_0_0
   + flow_12_11_0_0 + flow_13_11_0_0 + flow_17_11_0_0 + flow_19_11_0_0 = 1
 one_parent_12: edge_2_12_0_0 + edge_3_12_0_0 + edge_6_12_0_0
   + edge_7_12_0_0 + edge_8_12_0_0 + edge_9_12_0_0 + edge_11_12_0_0
   + edge_13_12_0_0 + edge_15_12_0_0 + edge_17_12_0_0 + edge_19_12_0_0 = 1
 consume_one_flow_unit_12: flow_2_12_0_0 + flow_3_12_0_0 + flow_6_12_0_0
   + flow_7_12_0_0 + flow_8_12_0_0 + flow_9_12_0_0 + flow_11_12_0_0
   - flow_12_2_0_0 - flow_12_3_0_0 - flow_12_5_0_0 - flow_12_6_0_0
   - flow_12_7_0_0 - flow_12_9_0_0 - flow_12_10_0_0 - flow_12_11_0_0
   - flow_12_13_0_0 - flow_12_15_0_0 - flow_12_17_0_0 - flow_12_18_0_0
   - flow_12_19_0_0 - flow_12_21_0_0 + flow_13_12_0_0 + flow_15_12_0_0
   + flow_17_12_0_0 + flow_19_12_0_0 = 1
 one_parent_13: edge_0_13_0_0 + edge_1_13_0_0 + edge_2_13_0_0
   + edge_3_13_0_0 + edge_4_13_0_0 + edge_6_13_0_0 + edge_7_13_0_0
   + edge_8_13_0_0 + edge_9_13_0_0 + edge_11_13_0_0 + edge_12_13_0_0
   + edge_15_13_0_0 + edge_16_13_0_0 + edge_17_13_0_0 + edge_18_13_0_0
   + edge_19_13_0_0 = 1
 consume_one_flow_unit_13: flow_0_13_0_0 + flow_1_13_0_0 + flow_2_13_0_0
   + flow_3_13_0_0 + flow_4_13_0_0 + flow_6_13_0_0 + flow_7_13_0_0
   + flow_8_13_0_0 + flow_9_13_0_0 + flow_11_13_0_0 + flow_12_13_0_0
   - flow_13_1_0_0 - flow_13_2_0_0 - flow_13_3_0_0 - flow_13_4_0_0
   - flow_13_5_0_0 - flow_13_6_0_0 - flow_13_7_0_0 - flow_13_8_0_0
   - flow_13_9_0_0 - flow_13_10_0_0 - flow_13_11_0_0 - flow_13_12_0_0
   - flow_13_15_0_0 - flow_13_16_0_0 - flow_13_17_0_0 - flow_13_18_0_0
   - flow_13_19_0_0 - flow_13_21_0_0 + flow_15_13_0_0 + flow_16_13_0_0
   + flow_17_13_0_0 + flow_18_13_0_0 + flow_19_13_0_0 = 1
 one_parent_14: = 1
 consume_one_flow_unit_14: = 1
 one_parent_15: edge_0_15_0_0 + edge_1_15_0_0 + edge_3_15_0_0
   + edge_7_15_0_0 + edge_8_15_0_0 + edge_9_15_0_0 + edge_11_15_0_0
   + edge_12_15_0_0 + edge_13_15_0_0 + edge_16_15_0_0 + edge_17_15_0_0
   + edge_18_15_0_0 + edge_19_15_0_0 = 1
 consume_one_flow_unit_15: flow_0_15_0_0 + flow_1_15_0_0 + flow_3_15_0_0
   + flow_7_15_0_0 + flow_8_15_0_0 + flow_9_15_0_0 + flow_11_15_0_0
   + flow_12_15_0_0 + flow_13_15_0_0 - flow_15_1_0_0 - flow_15_3_0_0
   - flow_15_8_0_0 - flow_15_9_0_0 - flow_15_10_0_0 - flow_15_12_0_0
   - flow_15_13_0_0 - flow_15_16_0_0 - flow_15_17_0_0 - flow_15_18_0_0
   - flow_15_19_0_0 - flow_15_21_0_0 + flow_16_15_0_0 + flow_17_15_0_0
   + flow_18_15_0_0 + flow_19_15_0_0 = 1
 one_parent_16: edge_0_16_0_0 + edge_1_16_0_0 + edge_8_16_0_0
   + edge_9_16_0_0 + edge_13_16_0_0 + edge_15_16_0_0 + edge_17_16_0_0
   + edge_18_16_0_0 + edge_19_16_0_0 = 1
 consume_one_flow_unit_16: flow_0_16_0_0 + flow_1_16_0_0 + flow_8_16_0_0
   + flow_9_16_0_0 + flow_13_16_0_0 + flow_15_16_0_0 - flow_16_1_0_0
   - flow_16_8_0_0 - flow_16_13_0_0 - flow_16_15_0_0 - flow_16_17_0_0
   - flow_16_19_0_0 - flow_16_21_0_0 + flow_17_16_0_0 + flow_18_16_0_0
   + flow_19_16_0_0 = 1
 one_parent_17: edge_0_17_0_0 + edge_1_17_0_0 + edge_3_17_0_0
   + edge_7_17_0_0 + edge_8_17_0_0 + edge_9_17_0_0 + edge_11_17_0_0
   + edge_12_17_0_0 + edge_13_17_0_0 + edge_15_17_0_0 + edge_16_17_0_0
   + edge_18_17_0_0 + edge_19_17_0_0 = 1
 consume_one_flow_unit_17: flow_0_17_0_0 + flow_1_17_0_0 + flow_3_17_0_0
   + flow_7_17_0_0 + flow_8_17_0_0 + flow_9_17_0_0 + flow_11_17_0_0
   + flow_12_17_0_0 + flow_13_17_0_0 + flow_15_17_0_0 + flow_16_17_0_0
   - flow_17_1_0_0 - flow_17_2_0_0 - flow_17_3_0_0 - flow_17_5_0_0
   - flow_17_6_0_0 - flow_17_8_0_0 - flow_17_9_0_0 - flow_17_11_0_0
   - flow_17_12_0_0 - flow_17_13_0_0 - flow_17_15_0_0 - flow_17_16_0_0
   - flow_17_18_0_0 - flow_17_19_0_0 - flow_17_21_0_0 + flow_18_17_0_0
   + flow_19_17_0_0 = 1
 one_parent_18: edge_1_18_0_0 + edge_3_18_0_0 + edge_6_18_0_0
   + edge_7_18_0_0 + edge_9_18_0_0 + edge_11_18_0_0 + edge_12_18_0_0
   + edge_13_18_0_0 + edge_15_18_0_0 + edge_17_18_0_0 + edge_19_18_0_0 = 1
 consume_one_flow_unit_18: flow_1_18_0_0 + flow_3_18_0_0 + flow_6_18_0_0
   + flow_7_18_0_0 + flow_9_18_0_0 + flow_11_18_0_0 + flow_12_18_0_0
   + flow_13_18_0_0 + flow_15_18_0_0 + flow_17_18_0_0 - flow_18_1_0_0
   - flow_18_8_0_0 - flow_18_13_0_0 - flow_18_15_0_0 - flow_18_16_0_0
   - flow_18_17_0_0 - flow_18_19_0_0 - flow_18_21_0_0 + flow_19_18_0_0 = 1
 one_parent_19: edge_0_19_0_0 + edge_1_19_0_0 + edge_3_19_0_0
   + edge_6_19_0_0 + edge_7_19_0_0 + edge_8_19_0_0 + edge_9_19_0_0
   + edge_11_19_0_0 + edge_12_19_0_0 + edge_13_19_0_0 + edge_15_19_0_0
   + edge_16_19_0_0 + edge_17_19_0_0 + edge_18_19_0_0 + edge_21_19_0_0 = 1
 consume_one_flow_unit_19: flow_0_19_0_0 + flow_1_19_0_0 + flow_3_19_0_0
   + flow_6_19_0_0 + flow_7_19_0_0 + flow_8_19_0_0 + flow_9_19_0_0
   + flow_11_19_0_0 + flow_12_19_0_0 + flow_13_19_0_0 + flow_15_19_0_0
   + flow_16_19_0_0 + flow_17_19_0_0 + flow_18_19_0_0 - flow_19_1_0_0
   - flow_19_2_0_0 - flow_19_8_0_0 - flow_19_9_0_0 - flow_19_11_0_0
   - flow_19_12_0_0 - flow_19_13_0_0 - flow_19_15_0_0 - flow_19_16_0_0
   - flow_19_17_0_0 - flow_19_18_0_0 - flow_19_21_0_0 + flow_21_19_0_0 = 1
 one_parent_20: = 1
 consume_one_flow_unit_20: = 1
 one_parent_21: edge_1_21_0_0 + edge_2_21_0_0 + edge_3_21_0_0
   + edge_4_21_0_0 + edge_7_21_0_0 + edge_8_21_0_0 + edge_9_21_0_0
   + edge_12_21_0_0 + edge_13_21_0_0 + edge_15_21_0_0 + edge_16_21_0_0
   + edge_17_21_0_0 + edge_18_21_0_0 + edge_19_21_0_0 = 1
 consume_one_flow_unit_21: flow_1_21_0_0 + flow_2_21_0_0 + flow_3_21_0_0
   + flow_4_21_0_0 + flow_7_21_0_0 + flow_8_21_0_0 + flow_9_21_0_0
   + flow_12_21_0_0 + flow_13_21_0_0 + flow_15_21_0_0 + flow_16_21_0_0
   + flow_17_21_0_0 + flow_18_21_0_0 + flow_19_21_0_0 - flow_21_19_0_0 = 1
 root_flow: flow_0_1_0_0 + flow_0_2_0_0 + flow_0_3_0_0 + flow_0_4_0_0
   + flow_0_6_0_0 + flow_0_7_0_0 + flow_0_8_0_0 + flow_0_9_0_0
   + flow_0_13_0_0 + flow_0_15_0_0 + flow_0_16_0_0 + flow_0_17_0_0
   + flow_0_19_0_0 = 21
 inactive_no_flow_0_1_0_0: flow_0_1_0_0 - 1000 edge_0_1_0_0 <= 0
 inactive_no_flow_0_2_0_0: flow_0_2_0_0 - 1000 edge_0_2_0_0 <= 0
 inactive_no_flow_0_3_0_0: flow_0_3_0_0 - 1000 edge_0_3_0_0 <= 0
 inactive_no_flow_0_4_0_0: flow_0_4_0_0 - 1000 edge_0_4_0_0 <= 0
 inactive_no_flow_0_6_0_0: flow_0_6_0_0 - 1000 edge_0_6_0_0 <= 0
 inactive_no_flow_0_7_0_0: flow_0_7_0_0 - 1000 edge_0_7_0_0 <= 0
 inactive_no_flow_0_8_0_0: flow_0_8_0_0 - 1000 edge_0_8_0_0 <= 0
 inactive_no_flow_0_9_0_0: flow_0_9_0_0 - 1000 edge_0_9_0_0 <= 0
 inactive_no_flow_0_13_0_0: flow_0_13_0_0 - 1000 edge_0_13_0_0 <= 0
 inactive_no_flow_0_15_0_0: flow_0_15_0_0 - 1000 edge_0_15_0_0 <= 0
 inactive_no_flow_0_16_0_0: flow_0_16_0_0 - 1000 edge_0_16_0_0 <= 0
 inactive_no_flow_0_17_0_0: flow_0_17_0_0 - 1000 edge_0_17_0_0 <= 0
 inactive_no_flow_0_19_0_0: flow_0_19_0_0 - 1000 edge_0_19_0_0 <= 0
 inactive_no_flow_1_8_0_0: flow_1_8_0_0 - 1000 edge_1_8_0_0 <= 0
 inactive_no_flow_1_9_0_0: flow_1_9_0_0 - 1000 edge_1_9_0_0 <= 0
 inactive_no_flow_1_13_0_0: flow_1_13_0_0 - 1000 edge_1_13_0_0 <= 0
 inactive_no_flow_1_15_0_0: flow_1_15_0_0 - 1000 edge_1_15_0_0 <= 0
 inactive_no_flow_1_16_0_0: flow_1_16_0_0 - 1000 edge_1_16_0_0 <= 0
 inactive_no_flow_1_17_0_0: flow_1_17_0_0 - 1000 edge_1_17_0_0 <= 0
 inactive_no_flow_1_18_0_0: flow_1_18_0_0 - 1000 edge_1_18_0_0 <= 0
 inactive_no_flow_1_19_0_0: flow_1_19_0_0 - 1000 edge_1_19_0_0 <= 0
 inactive_no_flow_1_21_0_0: flow_1_21_0_0 - 1000 edge_1_21_0_0 <= 0
 inactive_no_flow_2_3_0_0: flow_2_3_0_0 - 1000 edge_2_3_0_0 <= 0
 inactive_no_flow_2_4_0_0: flow_2_4_0_0 - 1000 edge_2_4_0_0 <= 0
 inactive_no_flow_2_5_0_0: flow_2_5_0_0 - 1000 edge_2_5_0_0 <= 0
 inactive_no_flow_2_6_0_0: flow_2_6_0_0 - 1000 edge_2_6_0_0 <= 0
 inactive_no_flow_2_7_0_0: flow_2_7_0_0 - 1000 edge_2_7_0_0 <= 0
 inactive_no_flow_2_8_0_0: flow_2_8_0_0 - 1000 edge_2_8_0_0 <= 0
 inactive_no_flow_2_9_0_0: flow_2_9_0_0 - 1000 edge_2_9_0_0 <= 0
 inactive_no_flow_2_10_0_0: flow_2_10_0_0 - 1000 edge_2_10_0_0 <= 0
 inactive_no_flow_2_11_0_0: flow_2_11_0_0 - 1000 edge_2_11_0_0 <= 0
 inactive_no_flow_2_12_0_0: flow_2_12_0_0 - 1000 edge_2_12_0_0 <= 0
 inactive_no_flow_2_13_0_0: flow_2_13_0_0 - 1000 edge_2_13_0_0 <= 0
 inactive_no_flow_2_21_0_0: flow_2_21_0_0 - 1000 edge_2_21_0_0 <= 0
 inactive_no_flow_3_2_0_0: flow_3_2_0_0 - 1000 edge_3_2_0_0 <= 0
 inactive_no_flow_3_4_0_0: flow_3_4_0_0 - 1000 edge_3_4_0_0 <= 0
 inactive_no_flow_3_5_0_0: flow_3_5_0_0 - 1000 edge_3_5_0_0 <= 0
 inactive_no_flow_3_6_0_0: flow_3_6_0_0 - 1000 edge_3_6_0_0 <= 0
 inactive_no_flow_3_7_0_0: flow_3_7_0_0 - 1000 edge_3_7_0_0 <= 0
 inactive_no_flow_3_8_0_0: flow_3_8_0_0 - 1000 edge_3_8_0_0 <= 0
 inactive_no_flow_3_9_0_0: flow_3_9_0_0 - 1000 edge_3_9_0_0 <= 0
 inactive_no_flow_3_10_0_0: flow_3_10_0_0 - 1000 edge_3_10_0_0 <= 0
 inactive_no_flow_3_11_0_0: flow_3_11_0_0 - 1000 edge_3_11_0_0 <= 0
 inactive_no_flow_3_12_0_0: flow_3_12_0_0 - 1000 edge_3_12_0_0 <= 0
 inactive_no_flow_3_13_0_0: flow_3_13_0_0 - 1000 edge_3_13_0_0 <= 0
 inactive_no_flow_3_15_0_0: flow_3_15_0_0 - 1000 edge_3_15_0_0 <= 0
 inactive_no_flow_3_17_0_0: flow_3_17_0_0 - 1000 edge_3_17_0_0 <= 0
 inactive_no_flow_3_18_0_0: flow_3_18_0_0 - 1000 edge_3_18_0_0 <= 0
 inactive_no_flow_3_19_0_0: flow_3_19_0_0 - 1000 edge_3_19_0_0 <= 0
 inactive_no_flow_3_21_0_0: flow_3_21_0_0 - 1000 edge_3_21_0_0 <= 0
 inactive_no_flow_4_2_0_0: flow_4_2_0_0 - 1000 edge_4_2_0_0 <= 0
 inactive_no_flow_4_3_0_0: flow_4_3_0_0 - 1000 edge_4_3_0_0 <= 0
 inactive_no_flow_4_5_0_0: flow_4_5_0_0 - 1000 edge_4_5_0_0 <= 0
 inactive_no_flow_4_6_0_0: flow_4_6_0_0 - 1000 edge_4_6_0_0 <= 0
 inactive_no_flow_4_7_0_0: flow_4_7_0_0 - 1000 edge_4_7_0_0 <= 0
 inactive_no_flow_4_8_0_0: flow_4_8_0_0 - 1000 edge_4_8_0_0 <= 0
 inactive_no_flow_4_9_0_0: flow_4_9_0_0 - 1000 edge_4_9_0_0 <= 0
 inactive_no_flow_4_10_0_0: flow_4_10_0_0 - 1000 edge_4_10_0_0 <= 0
 inactive_no_flow_4_13_0_0: flow_4_13_0_0 - 1000 edge_4_13_0_0 <= 0
 inactive_no_flow_4_21_0_0: flow_4_21_0_0 - 1000 edge_4_21_0_0 <= 0
 inactive_no_flow_5_4_0_0: flow_5_4_0_0 - 1000 edge_5_4_0_0 <= 0
 inactive_no_flow_5_6_0_0: flow_5_6_0_0 - 1000 edge_5_6_0_0 <= 0
 inactive_no_flow_5_7_0_0: flow_5_7_0_0 - 1000 edge_5_7_0_0 <= 0
 inactive_no_flow_6_4_0_0: flow_6_4_0_0 - 1000 edge_6_4_0_0 <= 0
 inactive_no_flow_6_5_0_0: flow_6_5_0_0 - 1000 edge_6_5_0_0 <= 0
 inactive_no_flow_6_6_0_0: flow_6_6_0_0 - 1000 edge_6_6_0_0 <= 0
 inactive_no_flow_6_7_0_0: flow_6_7_0_0 - 1000 edge_6_7_0_0 <= 0
 inactive_no_flow_6_8_0_0: flow_6_8_0_0 - 1000 edge_6_8_0_0 <= 0
 inactive_no_flow_6_9_0_0: flow_6_9_0_0 - 1000 edge_6_9_0_0 <= 0
 inactive_no_flow_6_10_0_0: flow_6_10_0_0 - 1000 edge_6_10_0_0 <= 0
 inactive_no_flow_6_11_0_0: flow_6_11_0_0 - 1000 edge_6_11_0_0 <= 0
 inactive_no_flow_6_12_0_0: flow_6_12_0_0 - 1000 edge_6_12_0_0 <= 0
 inactive_no_flow_6_13_0_0: flow_6_13_0_0 - 1000 edge_6_13_0_0 <= 0
 inactive_no_flow_6_18_0_0: flow_6_18_0_0 - 1000 edge_6_18_0_0 <= 0
 inactive_no_flow_6_19_0_0: flow_6_19_0_0 - 1000 edge_6_19_0_0 <= 0
 inactive_no_flow_7_2_0_0: flow_7_2_0_0 - 1000 edge_7_2_0_0 <= 0
 inactive_no_flow_7_3_0_0: flow_7_3_0_0 - 1000 edge_7_3_0_0 <= 0
 inactive_no_flow_7_4_0_0: flow_7_4_0_0 - 1000 edge_7_4_0_0 <= 0
 inactive_no_flow_7_5_0_0: flow_7_5_0_0 - 1000 edge_7_5_0_0 <= 0
 inactive_no_flow_7_6_0_0: flow_7_6_0_0 - 1000 edge_7_6_0_0 <= 0
 inactive_no_flow_7_8_0_0: flow_7_8_0_0 - 1000 edge_7_8_0_0 <= 0
 inactive_no_flow_7_9_0_0: flow_7_9_0_0 - 1000 edge_7_9_0_0 <= 0
 inactive_no_flow_7_10_0_0: flow_7_10_0_0 - 1000 edge_7_10_0_0 <= 0
 inactive_no_flow_7_11_0_0: flow_7_11_0_0 - 1000 edge_7_11_0_0 <= 0
 inactive_no_flow_7_12_0_0: flow_7_12_0_0 - 1000 edge_7_12_0_0 <= 0
 inactive_no_flow_7_13_0_0: flow_7_13_0_0 - 1000 edge_7_13_0_0 <= 0
 inactive_no_flow_7_15_0_0: flow_7_15_0_0 - 1000 edge_7_15_0_0 <= 0
 inactive_no_flow_7_17_0_0: flow_7_17_0_0 - 1000 edge_7_17_0_0 <= 0
 inactive_no_flow_7_18_0_0: flow_7_18_0_0 - 1000 edge_7_18_0_0 <= 0
 inactive_no_flow_7_19_0_0: flow_7_19_0_0 - 1000 edge_7_19_0_0 <= 0
 inactive_no_flow_7_21_0_0: flow_7_21_0_0 - 1000 edge_7_21_0_0 <= 0
 inactive_no_flow_8_1_0_0: flow_8_1_0_0 - 1000 edge_8_1_0_0 <= 0
 inactive_no_flow_8_2_0_0: flow_8_2_0_0 - 1000 edge_8_2_0_0 <= 0
 inactive_no_flow_8_3_0_0: flow_8_3_0_0 - 1000 edge_8_3_0_0 <= 0
 inactive_no_flow_8_4_0_0: flow_8_4_0_0 - 1000 edge_8_4_0_0 <= 0
 inactive_no_flow_8_5_0_0: flow_8_5_0_0 - 1000 edge_8_5_0_0 <= 0
 inactive_no_flow_8_6_0_0: flow_8_6_0_0 - 1000 edge_8_6_0_0 <= 0
 inactive_no_flow_8_7_0_0: flow_8_7_0_0 - 1000 edge_8_7_0_0 <= 0
 inactive_no_flow_8_9_0_0: flow_8_9_0_0 - 1000 edge_8_9_0_0 <= 0
 inactive_no_flow_8_10_0_0: flow_8_10_0_0 - 1000 edge_8_10_0_0 <= 0
 inactive_no_flow_8_11_0_0: flow_8_11_0_0 - 1000 edge_8_11_0_0 <= 0
 inactive_no_flow_8_12_0_0: flow_8_12_0_0 - 1000 edge_8_12_0_0 <= 0
 inactive_no_flow_8_13_0_0: flow_8_13_0_0 - 1000 edge_8_13_0_0 <= 0
 inactive_no_flow_8_15_0_0: flow_8_15_0_0 - 1000 edge_8_15_0_0 <= 0
 inactive_no_flow_8_16_0_0: flow_8_16_0_0 - 1000 edge_8_16_0_0 <= 0
 inactive_no_flow_8_17_0_0: flow_8_17_0_0 - 1000 edge_8_17_0_0 <= 0
 inactive_no_flow_8_19_0_0: flow_8_19_0_0 - 1000 edge_8_19_0_0 <= 0
 inactive_no_flow_8_21_0_0: flow_8_21_0_0 - 1000 edge_8_21_0_0 <= 0
 inactive_no_flow_9_1_0_0: flow_9_1_0_0 - 1000 edge_9_1_0_0 <= 0
 inactive_no_flow_9_2_0_0: flow_9_2_0_0 - 1000 edge_9_2_0_0 <= 0
 inactive_no_flow_9_3_0_0: flow_9_3_0_0 - 1000 edge_9_3_0_0 <= 0
 inactive_no_flow_9_4_0_0: flow_9_4_0_0 - 1000 edge_9_4_0_0 <= 0
 inactive_no_flow_9_5_0_0: flow_9_5_0_0 - 1000 edge_9_5_0_0 <= 0
 inactive_no_flow_9_6_0_0: flow_9_6_0_0 - 1000 edge_9_6_0_0 <= 0
 inactive_no_flow_9_7_0_0: flow_9_7_0_0 - 1000 edge_9_7_0_0 <= 0
 inactive_no_flow_9_8_0_0: flow_9_8_0_0 - 1000 edge_9_8_0_0 <= 0
 inactive_no_flow_9_9_0_0: flow_9_9_0_0 - 1000 edge_9_9_0_0 <= 0
 inactive_no_flow_9_10_0_0: flow_9_10_0_0 - 1000 edge_9_10_0_0 <= 0
 inactive_no_flow_9_11_0_0: flow_9_11_0_0 - 1000 edge_9_11_0_0 <= 0
 inactive_no_flow_9_12_0_0: flow_9_12_0_0 - 1000 edge_9_12_0_0 <= 0
 inactive_no_flow_9_13_0_0: flow_9_13_0_0 - 1000 edge_9_13_0_0 <= 0
 inactive_no_flow_9_15_0_0: flow_9_15_0_0 - 1000 edge_9_15_0_0 <= 0
 inactive_no_flow_9_16_0_0: flow_9_16_0_0 - 1000 edge_9_16_0_0 <= 0
 inactive_no_flow_9_17_0_0: flow_9_17_0_0 - 1000 edge_9_17_0_0 <= 0
 inactive_no_flow_9_18_0_0: flow_9_18_0_0 - 1000 edge_9_18_0_0 <= 0
 inactive_no_flow_9_19_0_0: flow_9_19_0_0 - 1000 edge_9_19_0_0 <= 0
 inactive_no_flow_9_21_0_0: flow_9_21_0_0 - 1000 edge_9_21_0_0 <= 0
 inactive_no_flow_10_9_0_0: flow_10_9_0_0 - 1000 edge_10_9_0_0 <= 0
 inactive_no_flow_10_11_0_0: flow_10_11_0_0 - 1000 edge_10_11_0_0 <= 0
 inactive_no_flow_11_3_0_0: flow_11_3_0_0 - 1000 edge_11_3_0_0 <= 0
 inactive_no_flow_11_5_0_0: flow_11_5_0_0 - 1000 edge_11_5_0_0 <= 0
 inactive_no_flow_11_7_0_0: flow_11_7_0_0 - 1000 edge_11_7_0_0 <= 0
 inactive_no_flow_11_8_0_0: flow_11_8_0_0 - 1000 edge_11_8_0_0 <= 0
 inactive_no_flow_11_9_0_0: flow_11_9_0_0 - 1000 edge_11_9_0_0 <= 0
 inactive_no_flow_11_10_0_0: flow_11_10_0_0 - 1000 edge_11_10_0_0 <= 0
 inactive_no_flow_11_12_0_0: flow_11_12_0_0 - 1000 edge_11_12_0_0 <= 0
 inactive_no_flow_11_13_0_0: flow_11_13_0_0 - 1000 edge_11_13_0_0 <= 0
 inactive_no_flow_11_15_0_0: flow_11_15_0_0 - 1000 edge_11_15_0_0 <= 0
 inactive_no_flow_11_17_0_0: flow_11_17_0_0 - 1000 edge_11_17_0_0 <= 0
 inactive_no_flow_11_18_0_0: flow_11_18_0_0 - 1000 edge_11_18_0_0 <= 0
 inactive_no_flow_11_19_0_0: flow_11_19_0_0 - 1000 edge_11_19_0_0 <= 0
 inactive_no_flow_12_2_0_0: flow_12_2_0_0 - 1000 edge_12_2_0_0 <= 0
 inactive_no_flow_12_3_0_0: flow_12_3_0_0 - 1000 edge_12_3_0_0 <= 0
 inactive_no_flow_12_5_0_0: flow_12_5_0_0 - 1000 edge_12_5_0_0 <= 0
 inactive_no_flow_12_6_0_0: flow_12_6_0_0 - 1000 edge_12_6_0_0 <= 0
 inactive_no_flow_12_7_0_0: flow_12_7_0_0 - 1000 edge_12_7_0_0 <= 0
 inactive_no_flow_12_9_0_0: flow_12_9_0_0 - 1000 edge_12_9_0_0 <= 0
 inactive_no_flow_12_10_0_0: flow_12_10_0_0 - 1000 edge_12_10_0_0 <= 0
 inactive_no_flow_12_11_0_0: flow_12_11_0_0 - 1000 edge_12_11_0_0 <= 0
 inactive_no_flow_12_13_0_0: flow_12_13_0_0 - 1000 edge_12_13_0_0 <= 0
 inactive_no_flow_12_15_0_0: flow_12_15_0_0 - 1000 edge_12_15_0_0 <= 0
 inactive_no_flow_12_17_0_0: flow_12_17_0_0 - 1000 edge_12_17_0_0 <= 0
 inactive_no_flow_12_18_0_0: flow_12_18_0_0 - 1000 edge_12_18_0_0 <= 0
 inactive_no_flow_12_19_0_0: flow_12_19_0_0 - 1000 edge_12_19_0_0 <= 0
 inactive_no_flow_12_21_0_0: flow_12_21_0_0 - 1000 edge_12_21_0_0 <= 0
 inactive_no_flow_13_1_0_0: flow_13_1_0_0 - 1000 edge_13_1_0_0 <= 0
 inactive_no_flow_13_2_0_0: flow_13_2_0_0 - 1000 edge_13_2_0_0 <= 0
 inactive_no_flow_13_3_0_0: flow_13_3_0_0 - 1000 edge_13_3_0_0 <= 0
 inactive_no_flow_13_4_0_0: flow_13_4_0_0 - 1000 edge_13_4_0_0 <= 0
 inactive_no_flow_13_5_0_0: flow_13_5_0_0 - 1000 edge_13_5_0_0 <= 0
 inactive_no_flow_13_6_0_0: flow_13_6_0_0 - 1000 edge_13_6_0_0 <= 0
 inactive_no_flow_13_7_0_0: flow_13_7_0_0 - 1000 edge_13_7_0_0 <= 0
 inactive_no_flow_13_8_0_0: flow_13_8_0_0 - 1000 edge_13_8_0_0 <= 0
 inactive_no_flow_13_9_0_0: flow_13_9_0_0 - 1000 edge_13_9_0_0 <= 0
 inactive_no_flow_13_10_0_0: flow_13_10_0_0 - 1000 edge_13_10_0_0 <= 0
 inactive_no_flow_13_11_0_0: flow_13_11_0_0 - 1000 edge_13_11_0_0 <= 0
 inactive_no_flow_13_12_0_0: flow_13_12_0_0 - 1000 edge_13_12_0_0 <= 0
 inactive_no_flow_13_15_0_0: flow_13_15_0_0 - 1000 edge_13_15_0_0 <= 0
 inactive_no_flow_13_16_0_0: flow_13_16_0_0 - 1000 edge_13_16_0_0 <= 0
 inactive_no_flow_13_17_0_0: flow_13_17_0_0 - 1000 edge_13_17_0_0 <= 0
 inactive_no_flow_13_18_0_0: flow_13_18_0_0 - 1000 edge_13_18_0_0 <= 0
 inactive_no_flow_13_19_0_0: flow_13_19_0_0 - 1000 edge_13_19_0_0 <= 0
 inactive_no_flow_13_21_0_0: flow_13_21_0_0 - 1000 edge_13_21_0_0 <= 0
 inactive_no_flow_15_1_0_0: flow_15_1_0_0 - 1000 edge_15_1_0_0 <= 0
 inactive_no_flow_15_3_0_0: flow_15_3_0_0 - 1000 edge_15_3_0_0 <= 0
 inactive_no_flow_15_8_0_0: flow_15_8_0_0 - 1000 edge_15_8_0_0 <= 0
 inactive_no_flow_15_9_0_0: flow_15_9_0_0 - 1000 edge_15_9_0_0 <= 0
 inactive_no_flow_15_10_0_0: flow_15_10_0_0 - 1000 edge_15_10_0_0 <= 0
 inactive_no_flow_15_12_0_0: flow_15_12_0_0 - 1000 edge_15_12_0_0 <= 0
 inactive_no_flow_15_13_0_0: flow_15_13_0_0 - 1000 edge_15_13_0_0 <= 0
 inactive_no_flow_15_16_0_0: flow_15_16_0_0 - 1000 edge_15_16_0_0 <= 0
 inactive_no_flow_15_17_0_0: flow_15_17_0_0 - 1000 edge_15_17_0_0 <= 0
 inactive_no_flow_15_18_0_0: flow_15_18_0_0 - 1000 edge_15_18_0_0 <= 0
 inactive_no_flow_15_19_0_0: flow_15_19_0_0 - 1000 edge_15_19_0_0 <= 0
 inactive_no_flow_15_21_0_0: flow_15_21_0_0 - 1000 edge_15_21_0_0 <= 0
 inactive_no_flow_16_1_0_0: flow_16_1_0_0 - 1000 edge_16_1_0_0 <= 0
 inactive_no_flow_16_8_0_0: flow_16_8_0_0 - 1000 edge_16_8_0_0 <= 0
 inactive_no_flow_16_13_0_0: flow_16_13_0_0 - 1000 edge_16_13_0_0 <= 0
 inactive_no_flow_16_15_0_0: flow_16_15_0_0 - 1000 edge_16_15_0_0 <= 0
 inactive_no_flow_16_17_0_0: flow_16_17_0_0 - 1000 edge_16_17_0_0 <= 0
 inactive_no_flow_16_19_0_0: flow_16_19_0_0 - 1000 edge_16_19_0_0 <= 0
 inactive_no_flow_16_21_0_0: flow_16_21_0_0 - 1000 edge_16_21_0_0 <= 0
 inactive_no_flow_17_1_0_0: flow_17_1_0_0 - 1000 edge_17_1_0_0 <= 0
 inactive_no_flow_17_2_0_0: flow_17_2_0_0 - 1000 edge_17_2_0_0 <= 0
 inactive_no_flow_17_3_0_0: flow_17_3_0_0 - 1000 edge_17_3_0_0 <= 0
 inactive_no_flow_17_5_0_0: flow_17_5_0_0 - 1000 edge_17_5_0_0 <= 0
 inactive_no_flow_17_6_0_0: flow_17_6_0_0 - 1000 edge_17_6_0_0 <= 0
 inactive_no_flow_17_8_0_0: flow_17_8_0_0 - 1000 edge_17_8_0_0 <= 0
 inactive_no_flow_17_9_0_0: flow_17_9_0_0 - 1000 edge_17_9_0_0 <= 0
 inactive_no_flow_17_11_0_0: flow_17_11_0_0 - 1000 edge_17_11_0_0 <= 0
 inactive_no_flow_17_12_0_0: flow_17_12_0_0 - 1000 edge_17_12_0_0 <= 0
 inactive_no_flow_17_13_0_0: flow_17_13_0_0 - 1000 edge_17_13_0_0 <= 0
 inactive_no_flow_17_15_0_0: flow_17_15_0_0 - 1000 edge_17_15_0_0 <= 0
 inactive_no_flow_17_16_0_0: flow_17_16_0_0 - 1000 edge_17_16_0_0 <= 0
 inactive_no_flow_17_18_0_0: flow_17_18_0_0 - 1000 edge_17_18_0_0 <= 0
 inactive_no_flow_17_19_0_0: flow_17_19_0_0 - 1000 edge_17_19_0_0 <= 0
 inactive_no_flow_17_21_0_0: flow_17_21_0_0 - 1000 edge_17_21_0_0 <= 0
 inactive_no_flow_18_1_0_0: flow_18_1_0_0 - 1000 edge_18_1_0_0 <= 0
 inactive_no_flow_18_8_0_0: flow_18_8_0_0 - 1000 edge_18_8_0_0 <= 0
 inactive_no_flow_18_13_0_0: flow_18_13_0_0 - 1000 edge_18_13_0_0 <= 0
 inactive_no_flow_18_15_0_0: flow_18_15_0_0 - 1000 edge_18_15_0_0 <= 0
 inactive_no_flow_18_16_0_0: flow_18_16_0_0 - 1000 edge_18_16_0_0 <= 0
 inactive_no_flow_18_17_0_0: flow_18_17_0_0 - 1000 edge_18_17_0_0 <= 0
 inactive_no_flow_18_19_0_0: flow_18_19_0_0 - 1000 edge_18_19_0_0 <= 0
 inactive_no_flow_18_21_0_0: flow_18_21_0_0 - 1000 edge_18_21_0_0 <= 0
 inactive_no_flow_19_1_0_0: flow_19_1_0_0 - 1000 edge_19_1_0_0 <= 0
 inactive_no_flow_19_2_0_0: flow_19_2_0_0 - 1000 edge_19_2_0_0 <= 0
 inactive_no_flow_19_8_0_0: flow_19_8_0_0 - 1000 edge_19_8_0_0 <= 0
 inactive_no_flow_19_9_0_0: flow_19_9_0_0 - 1000 edge_19_9_0_0 <= 0
 inactive_no_flow_19_11_0_0: flow_19_11_0_0 - 1000 edge_19_11_0_0 <= 0
 inactive_no_flow_19_12_0_0: flow_19_12_0_0 - 1000 edge_19_12_0_0 <= 0
 inactive_no_flow_19_13_0_0: flow_19_13_0_0 - 1000 edge_19_13_0_0 <= 0
 inactive_no_flow_19_15_0_0: flow_19_15_0_0 - 1000 edge_19_15_0_0 <= 0
 inactive_no_flow_19_16_0_0: flow_19_16_0_0 - 1000 edge_19_16_0_0 <= 0
 inactive_no_flow_19_17_0_0: flow_19_17_0_0 - 1000 edge_19_17_0_0 <= 0
 inactive_no_flow_19_18_0_0: flow_19_18_0_0 - 1000 edge_19_18_0_0 <= 0
 inactive_no_flow_19_21_0_0: flow_19_21_0_0 - 1000 edge_19_21_0_0 <= 0
 inactive_no_flow_21_19_0_0: flow_21_19_0_0 - 1000 edge_21_19_0_0 <= 0
Bounds
Binaries
 edge_0_1_0_0 edge_0_2_0_0 edge_0_3_0_0 edge_0_4_0_0 edge_0_6_0_0
 edge_0_7_0_0 edge_0_8_0_0 edge_0_9_0_0 edge_0_13_0_0 edge_0_15_0_0
 edge_0_16_0_0 edge_0_17_0_0 edge_0_19_0_0 edge_1_8_0_0 edge_1_9_0_0
 edge_1_13_0_0 edge_1_15_0_0 edge_1_16_0_0 edge_1_17_0_0 edge_1_18_0_0
 edge_1_19_0_0 edge_1_21_0_0 edge_2_3_0_0 edge_2_4_0_0 edge_2_5_0_0
 edge_2_6_0_0 edge_2_7_0_0 edge_2_8_0_0 edge_2_9_0_0 edge_2_10_0_0
 edge_2_11_0_0 edge_2_12_0_0 edge_2_13_0_0 edge_2_21_0_0 edge_3_2_0_0
 edge_3_4_0_0 edge_3_5_0_0 edge_3_6_0_0 edge_3_7_0_0 edge_3_8_0_0
 edge_3_9_0_0 edge_3_10_0_0 edge_3_11_0_0 edge_3_12_0_0 edge_3_13_0_0
 edge_3_15_0_0 edge_3_17_0_0 edge_3_18_0_0 edge_3_19_0_0 edge_3_21_0_0
 edge_4_2_0_0 edge_4_3_0_0 edge_4_5_0_0 edge_4_6_0_0 edge_4_7_0_0
 edge_4_8_0_0 edge_4_9_0_0 edge_4_10_0_0 edge_4_13_0_0 edge_4_21_0_0
 edge_5_4_0_0 edge_5_6_0_0 edge_5_7_0_0 edge_6_4_0_0 edge_6_5_0_0
 edge_6_6_0_0 edge_6_7_0_0 edge_6_8_0_0 edge_6_9_0_0 edge_6_10_0_0
 edge_6_11_0_0 edge_6_12_0_0 edge_6_13_0_0 edge_6_18_0_0 edge_6_19_0_0
 edge_7_2_0_0 edge_7_3_0_0 edge_7_4_0_0 edge_7_5_0_0 edge_7_6_0_0
 edge_7_8_0_0 edge_7_9_0_0 edge_7_10_0_0 edge_7_11_0_0 edge_7_12_0_0
 edge_7_13_0_0 edge_7_15_0_0 edge_7_17_0_0 edge_7_18_0_0 edge_7_19_0_0
 edge_7_21_0_0 edge_8_1_0_0 edge_8_2_0_0 edge_8_3_0_0 edge_8_4_0_0
 edge_8_5_0_0 edge_8_6_0_0 edge_8_7_0_0 edge_8_9_0_0 edge_8_10_0_0
 edge_8_11_0_0 edge_8_12_0_0 edge_8_13_0_0 edge_8_15_0_0 edge_8_16_0_0
 edge_8_17_0_0 edge_8_19_0_0 edge_8_21_0_0 edge_9_1_0_0 edge_9_2_0_0
 edge_9_3_0_0 edge_9_4_0_0 edge_9_5_0_0 edge_9_6_0_0 edge_9_7_0_0
 edge_9_8_0_0 edge_9_9_0_0 edge_9_10_0_0 edge_9_11_0_0 edge_9_12_0_0
 edge_9_13_0_0 edge_9_15_0_0 edge_9_16_0_0 edge_9_17_0_0 edge_9_18_0_0
 edge_9_19_0_0 edge_9_21_0_0 edge_10_9_0_0 edge_10_11_0_0 edge_11_3_0_0
 edge_11_5_0_0 edge_11_7_0_0 edge_11_8_0_0 edge_11_9_0_0 edge_11_10_0_0
 edge_11_12_0_0 edge_11_13_0_0 edge_11_15_0_0 edge_11_17_0_0 edge_11_18_0_0
 edge_11_19_0_0 edge_12_2_0_0 edge_12_3_0_0 edge_12_5_0_0 edge_12_6_0_0
 edge_12_7_0_0 edge_12_9_0_0 edge_12_10_0_0 edge_12_11_0_0 edge_12_13_0_0
 edge_12_15_0_0 edge_12_17_0_0 edge_12_18_0_0 edge_12_19_0_0 edge_12_21_0_0
 edge_13_1_0_0 edge_13_2_0_0 edge_13_3_0_0 edge_13_4_0_0 edge_13_5_0_0
 edge_13_6_0_0 edge_13_7_0_0 edge_13_8_0_0 edge_13_9_0_0 edge_13_10_0_0
 edge_13_11_0_0 edge_13_12_0_0 edge_13_15_0_0 edge_13_16_0_0 edge_13_17_0_0
 edge_13_18_0_0 edge_13_19_0_0 edge_13_21_0_0 edge_15_1_0_0 edge_15_3_0_0
 edge_15_8_0_0 edge_15_9_0_0 edge_15_10_0_0 edge_15_12_0_0 edge_15_13_0_0
 edge_15_16_0_0 edge_15_17_0_0 edge_15_18_0_0 edge_15_19_0_0 edge_15_21_0_0
 edge_16_1_0_0 edge_16_8_0_0 edge_16_13_0_0 edge_16_15_0_0 edge_16_17_0_0
 edge_16_19_0_0 edge_16_21_0_0 edge_17_1_0_0 edge_17_2_0_0 edge_17_3_0_0
 edge_17_5_0_0 edge_17_6_0_0 edge_17_8_0_0 edge_17_9_0_0 edge_17_11_0_0
 edge_17_12_0_0 edge_17_13_0_0 edge_17_15_0_0 edge_17_16_0_0 edge_17_18_0_0
 edge_17_19_0_0 edge_17_21_0_0 edge_18_1_0_0 edge_18_8_0_0 edge_18_13_0_0
 edge_18_15_0_0 edge_18_16_0_0 edge_18_17_0_0 edge_18_19_0_0 edge_18_21_0_0
 edge_19_1_0_0 edge_19_2_0_0 edge_19_8_0_0 edge_19_9_0_0 edge_19_11_0_0
 edge_19_12_0_0 edge_19_13_0_0 edge_19_15_0_0 edge_19_16_0_0 edge_19_17_0_0
 edge_19_18_0_0 edge_19_21_0_0 edge_21_19_0_0
End
